Data path: /scratch/opt/lxu/CFLG/benchmarks/tree_A
Instance: treeA.20.5
Result path: /scratch/opt/lxu/CFLG/results/tree_A
Solver: Gurobi
Time limit: 7200
Formulation: EF
Cover: Large
julia --project=. src/main.jl /scratch/opt/lxu/CFLG/benchmarks/tree_A treeA.20.5 /scratch/opt/lxu/CFLG/results/tree_A Gurobi 7200 EF Large
The latest version of Julia in the `release` channel is 1.11.6+0.x64.linux.gnu. You currently have `1.11.4+0.x64.linux.gnu` installed. Run:

  juliaup update

in your terminal shell to install Julia 1.11.6+0.x64.linux.gnu and update the `release` channel to that version.
/scratch/opt/lxu/CFLG/benchmarks/tree_A Gurobi 7200.0 /scratch/opt/lxu/CFLG/results/tree_A treeA.20.5 EF Large
/scratch/opt/lxu/CFLG/benchmarks/tree_A/treeA.20.5

 read graph
data loaded

problem_graph/original graph: node: 20/20 edge: 24/24 dlt: 2.992152058677599 break_avg_len: 1.4960760293387996 break_max_len: 1.9881954501227432elapsed CPU time: 0.012734 seconds
Set parameter TokenServer to value "solice01.zib.de"
Set parameter Threads to value 1
Set parameter OutputFlag to value 1
Set parameter MIPGap to value 0.0001
Set parameter TimeLimit to value 7199.987266

 model loaded

Gurobi Optimizer version 12.0.1 build v12.0.1rc0 (linux64 - "Debian GNU/Linux 12 (bookworm)")

CPU model: Intel(R) Xeon(R) Gold 5222 CPU @ 3.80GHz, instruction set [SSE2|AVX|AVX2|AVX512]
Thread count: 8 physical cores, 16 logical processors, using up to 1 threads

Non-default parameters:
TimeLimit  7199.987266
Threads  1

Optimize a model with 43608 rows, 16176 columns and 115128 nonzeros
Model fingerprint: 0xde2c3d06
Variable types: 1464 continuous, 14712 integer (14712 binary)
Coefficient statistics:
  Matrix range     [1e+00, 3e+01]
  Objective range  [1e+00, 1e+00]
  Bounds range     [1e+00, 2e+00]
  RHS range        [9e-03, 3e+01]
Found heuristic solution: objective 24.0000000
Presolve removed 33287 rows and 11413 columns
Presolve time: 0.88s
Presolved: 10321 rows, 4763 columns, 29207 nonzeros
Variable types: 130 continuous, 4633 integer (4633 binary)

Root relaxation: objective 8.113067e-01, 2454 iterations, 0.09 seconds (0.14 work units)

    Nodes    |    Current Node    |     Objective Bounds      |     Work
 Expl Unexpl |  Obj  Depth IntInf | Incumbent    BestBd   Gap | It/Node Time

     0     0    0.81131    0 1073   24.00000    0.81131  96.6%     -    1s
     0     0    0.81131    0 1084   24.00000    0.81131  96.6%     -    1s
H    0     0                       6.0000000    0.81131  86.5%     -    1s
H    0     0                       5.0000000    0.81131  83.8%     -    1s
     0     0    3.42509    0  239    5.00000    3.42509  31.5%     -    2s
     0     0    3.42509    0  202    5.00000    3.42509  31.5%     -    2s
     0     0    3.55022    0  348    5.00000    3.55022  29.0%     -    2s
H    0     0                       4.0000000    3.55022  11.2%     -    2s

Cutting planes:
  Learned: 56
  Cover: 31
  Implied bound: 3
  Clique: 38
  MIR: 14
  GUB cover: 1
  Zero half: 1
  RLT: 154
  Relax-and-lift: 9
  BQP: 50
  PSD: 1

Explored 1 nodes (12896 simplex iterations) in 2.66 seconds (2.48 work units)
Thread count was 1 (of 16 available processors)

Solution count 4: 4 5 6 24 

Optimal solution found (tolerance 1.00e-04)
Best objective 4.000000000000e+00, best bound 4.000000000000e+00, gap 0.0000%

User-callback calls 1304, time in user-callback 0.01 sec
Stat(MathOptInterface.OPTIMAL, 4.0, 4.0, 0.0, 6.9518068951082e-310, 0.012734, 2.661715030670166, 1, Main.CFLG.EF, "", #undef)
ERROR: LoadError: SystemError: opening file "/scratch/opt/lxu/CFLG/results/tree_A/treeA.20.5.EF.Large": No such file or directory
Stacktrace:
 [1] systemerror(p::String, errno::Int32; extrainfo::Nothing)
   @ Base ./error.jl:176
 [2] systemerror
   @ ./error.jl:175 [inlined]
 [3] open(fname::String; lock::Bool, read::Nothing, write::Nothing, create::Nothing, truncate::Bool, append::Nothing)
   @ Base ./iostream.jl:295
 [4] open
   @ ./iostream.jl:277 [inlined]
 [5] open(fname::String, mode::String; lock::Bool)
   @ Base ./iostream.jl:358
 [6] open
   @ ./iostream.jl:357 [inlined]
 [7] main(args::Vector{String})
   @ Main /scratch/opt/lxu/CFLG/src/main.jl:51
 [8] top-level scope
   @ /scratch/opt/lxu/CFLG/src/main.jl:57
in expression starting at /scratch/opt/lxu/CFLG/src/main.jl:57
srun: error: htc-cmp483: task 0: Exited with exit code 1
